slp/tmp/entl/clones-08-e08.tptp.smt2
(set-logic QF_S)
(set-info :source |
A. Rybalchenko and J. A. Navarro Perez.
[Separation Logic + Superposition Calculus = Heap Theorem Prover]
[PLDI 2011]
http://navarroj.com/research/papers.html#pldi11
|)
(set-info :smt-lib-version 2.0)
(set-info :category "random") 
(set-info :status unknown)
(set-info :version "2014-05-28")

(set-logic QF_NOLL)

(declare-sort Sll_t 0)

(declare-fun f () (Field Sll_t Sll_t))

(define-fun ls ((?in Sll_t) (?out Sll_t)) Space
(tospace (or (= ?in ?out)
(exists ((?u Sll_t))
(and (distinct ?in ?out) (tobool
(ssep (pto ?in (ref f ?u)) (ls ?u ?out)
)))))))

(declare-fun x_emp () Sll_t)
(declare-fun y_emp () Sll_t)
(declare-fun z_emp () Sll_t)
(declare-fun t_emp () Sll_t)
(declare-fun x0 () Sll_t)
(declare-fun x1 () Sll_t)
(declare-fun x2 () Sll_t)
(declare-fun x3 () Sll_t)
(declare-fun x4 () Sll_t)
(declare-fun x5 () Sll_t)
(declare-fun x6 () Sll_t)
(declare-fun x7 () Sll_t)
(declare-fun x8 () Sll_t)
(declare-fun x9 () Sll_t)
(declare-fun x10 () Sll_t)
(declare-fun x11 () Sll_t)
(declare-fun x12 () Sll_t)
(declare-fun x13 () Sll_t)
(declare-fun x14 () Sll_t)
(declare-fun x15 () Sll_t)
(declare-fun x16 () Sll_t)
(declare-fun x17 () Sll_t)
(declare-fun x18 () Sll_t)
(declare-fun x19 () Sll_t)
(declare-fun x20 () Sll_t)
(declare-fun x21 () Sll_t)
(declare-fun x22 () Sll_t)
(declare-fun x23 () Sll_t)
(declare-fun x24 () Sll_t)
(declare-fun x25 () Sll_t)
(declare-fun x26 () Sll_t)
(declare-fun x27 () Sll_t)
(declare-fun x28 () Sll_t)
(declare-fun x29 () Sll_t)
(declare-fun x30 () Sll_t)
(declare-fun x31 () Sll_t)
(declare-fun x32 () Sll_t)
(declare-fun x33 () Sll_t)
(declare-fun x34 () Sll_t)
(declare-fun x35 () Sll_t)
(declare-fun x36 () Sll_t)
(assert
  (and 
    (= nil nil)
(distinct  nil x1)
(distinct  nil x2)
(distinct  nil x3)
(distinct  x1 x3)
(distinct  x2 x3)
(distinct  nil x5)
(distinct  nil x6)
(distinct  nil x7)
(distinct  x5 x7)
(distinct  x6 x7)
(distinct  nil x9)
(distinct  nil x10)
(distinct  nil x11)
(distinct  x9 x11)
(distinct  x10 x11)
(distinct  nil x13)
(distinct  nil x14)
(distinct  nil x15)
(distinct  x13 x15)
(distinct  x14 x15)
(distinct  nil x17)
(distinct  nil x18)
(distinct  nil x19)
(distinct  x17 x19)
(distinct  x18 x19)
(distinct  nil x21)
(distinct  nil x22)
(distinct  nil x23)
(distinct  x21 x23)
(distinct  x22 x23)
(distinct  nil x25)
(distinct  nil x26)
(distinct  nil x27)
(distinct  x25 x27)
(distinct  x26 x27)
(distinct  nil x29)
(distinct  nil x30)
(distinct  nil x31)
(distinct  x29 x31)
(distinct  x30 x31)
    (tobool 
	(ssep
		(ls  x30 x29) 
		
		(pto x31 (ref f x30)) 
		
		(pto x29 (ref f x31)) 
		
		(ls  x26 x25) 
		
		(pto x27 (ref f x26)) 
		
		(pto x25 (ref f x27)) 
		
		(ls  x22 x21) 
		
		(pto x23 (ref f x22)) 
		
		(pto x21 (ref f x23)) 
		
		(ls  x18 x17) 
		
		(pto x19 (ref f x18)) 
		
		(pto x17 (ref f x19)) 
		
		(ls  x14 x13) 
		
		(pto x15 (ref f x14)) 
		
		(pto x13 (ref f x15)) 
		
		(ls  x10 x9) 
		
		(pto x11 (ref f x10)) 
		
		(pto x9 (ref f x11)) 
		
		(ls  x6 x5) 
		
		(pto x7 (ref f x6)) 
		
		(pto x5 (ref f x7)) 
		
		(ls  x2 x1) 
		
		(pto x3 (ref f x2)) 
		
		(pto x1 (ref f x3)) 
		(ssep (pto x_emp (ref f y_emp)) (pto z_emp (ref f t_emp)))
	) )
  )
)
(assert
  (not
        (tobool 
	(ssep
		(pto x32 (ref f x31)) 
		
		(ls  x30 x32) 
		
		(pto x31 (ref f x30)) 
		
		(pto x28 (ref f x27)) 
		
		(ls  x26 x28) 
		
		(pto x27 (ref f x26)) 
		
		(pto x24 (ref f x23)) 
		
		(ls  x22 x24) 
		
		(pto x23 (ref f x22)) 
		
		(pto x20 (ref f x19)) 
		
		(ls  x18 x20) 
		
		(pto x19 (ref f x18)) 
		
		(pto x16 (ref f x15)) 
		
		(ls  x14 x16) 
		
		(pto x15 (ref f x14)) 
		
		(pto x12 (ref f x11)) 
		
		(ls  x10 x12) 
		
		(pto x11 (ref f x10)) 
		
		(pto x8 (ref f x7)) 
		
		(ls  x6 x8) 
		
		(pto x7 (ref f x6)) 
		
		(pto x4 (ref f x3)) 
		
		(ls  x2 x4) 
		
		(pto x3 (ref f x2)) 
		(ssep (pto x_emp (ref f y_emp)) (pto z_emp (ref f t_emp)))
	) )
  ))

(check-sat)
